NAME : rnd6_50.tsp.tsp.optbc.tour
TYPE : TOUR
DIMENSION : 50
TOUR_SECTION
1
32
43
33
11
34
35
42
30
6
29
2
12
26
31
49
28
21
19
13
38
16
18
50
48
9
4
45
10
39
23
25
20
5
8
24
44
7
40
46
22
41
17
36
15
37
3
27
14
47
-1